(set-logic QF_BV)
(declare-fun _substvar_2219_ () (_ BitVec 1024))
(declare-fun _substvar_2478_ () (_ BitVec 1024))
(declare-fun _substvar_2499_ () (_ BitVec 1024))
(declare-fun _substvar_3266_ () Bool)
(declare-fun _substvar_2218_ () (_ BitVec 1024))
(declare-fun _substvar_11864_ () Bool)
(declare-fun _substvar_2632_ () (_ BitVec 32))
(assert (let ((?v_0 ((_ extract 63 16) _substvar_2478_)) (?v_1 ((_ extract 47 0) _substvar_2478_)) (?v_6 ((_ extract 255 208) _substvar_2478_)) (?v_7 ((_ extract 239 192) _substvar_2478_)) (?v_8 ((_ extract 319 272) _substvar_2478_)) (?v_9 ((_ extract 303 256) _substvar_2478_)) (?v_10 ((_ extract 383 336) _substvar_2478_)) (?v_11 ((_ extract 367 320) _substvar_2478_)) (?v_12 ((_ extract 447 400) _substvar_2478_)) (?v_13 ((_ extract 431 384) _substvar_2478_)) (?v_14 ((_ extract 511 464) _substvar_2478_)) (?v_15 ((_ extract 495 448) _substvar_2478_)) (?v_18 ((_ extract 639 592) _substvar_2478_)) (?v_19 ((_ extract 623 576) _substvar_2478_)) (?v_20 ((_ extract 703 656) _substvar_2478_)) (?v_21 ((_ extract 687 640) _substvar_2478_)) (?v_22 ((_ extract 767 720) _substvar_2478_)) (?v_23 ((_ extract 751 704) _substvar_2478_)) (?v_31 ((_ extract 1007 960) _substvar_2478_))) (and true (or (not (= (_ bv0 16) ((_ extract 31 16) _substvar_2499_))) false false (not (= ((_ extract 239 224) _substvar_2499_) ((_ extract 223 208) _substvar_2499_))) (not (= (_ bv0 16) ((_ extract 287 272) _substvar_2499_))) (not (= ((_ extract 367 352) _substvar_2499_) ((_ extract 351 336) _substvar_2499_))) false (not (= ((_ extract 495 480) _substvar_2499_) ((_ extract 479 464) _substvar_2499_))) false (not (= ((_ extract 623 608) _substvar_2499_) ((_ extract 607 592) _substvar_2499_))) (not (= ((_ extract 687 672) _substvar_2499_) ((_ extract 671 656) _substvar_2499_))) (not (= ((_ extract 751 736) _substvar_2499_) ((_ extract 735 720) _substvar_2499_))) false false false false) (or false false false false false false false false false false false false false false false (not (= (_ bv0 16) ((_ extract 991 976) _substvar_2218_)))) (or false false false false false false (not (= ((_ extract 431 416) _substvar_2219_) ((_ extract 415 400) _substvar_2219_))) false false false false false false false false false) (or false (and (and (= ?v_0 (concat ((_ extract 63 32) _substvar_2499_) (_ bv0 16))) (= ?v_1 (concat (_ bv0 16) ((_ extract 31 0) _substvar_2499_)))) (and (= (_ bv0 48) (concat ((_ extract 127 96) _substvar_2499_) (_ bv0 16))) (= (_ bv0 48) (concat (_ bv0 16) ((_ extract 95 64) _substvar_2499_)))) (and (= (_ bv0 48) (concat ((_ extract 191 160) _substvar_2499_) (_ bv0 16))) (= (_ bv0 48) (concat (_ bv0 16) ((_ extract 159 128) _substvar_2499_)))) (and (= ?v_6 (concat ((_ extract 255 224) _substvar_2499_) (_ bv0 16))) (= ?v_7 (concat (_ bv0 16) ((_ extract 223 192) _substvar_2499_)))) (and (= ?v_8 (concat ((_ extract 319 288) _substvar_2499_) (_ bv0 16))) (= ?v_9 (concat (_ bv0 16) ((_ extract 287 256) _substvar_2499_)))) (and (= ?v_10 (concat ((_ extract 383 352) _substvar_2499_) (_ bv0 16))) (= ?v_11 (concat (_ bv0 16) ((_ extract 351 320) _substvar_2499_)))) (and (= ?v_12 (concat ((_ extract 447 416) _substvar_2499_) (_ bv0 16))) (= ?v_13 (concat (_ bv0 16) ((_ extract 415 384) _substvar_2499_)))) (and (= ?v_14 (concat ((_ extract 511 480) _substvar_2499_) (_ bv0 16))) (= ?v_15 (concat (_ bv0 16) ((_ extract 479 448) _substvar_2499_)))) (and (= (_ bv0 48) (concat ((_ extract 575 544) _substvar_2499_) (_ bv0 16))) (= (_ bv0 48) (concat (_ bv0 16) ((_ extract 543 512) _substvar_2499_)))) (and (= ?v_18 (concat ((_ extract 639 608) _substvar_2499_) (_ bv0 16))) (= ?v_19 (concat (_ bv0 16) ((_ extract 607 576) _substvar_2499_)))) (and (= ?v_20 (concat ((_ extract 703 672) _substvar_2499_) (_ bv0 16))) (= ?v_21 (concat (_ bv0 16) ((_ extract 671 640) _substvar_2499_)))) (and (= ?v_22 (concat ((_ extract 767 736) _substvar_2499_) (_ bv0 16))) (= ?v_23 (concat (_ bv0 16) ((_ extract 735 704) _substvar_2499_)))) (and (= (_ bv0 48) (concat ((_ extract 831 800) _substvar_2499_) (_ bv0 16))) (= (_ bv0 48) (concat (_ bv0 16) ((_ extract 799 768) _substvar_2499_)))) (and (= (_ bv0 48) (concat ((_ extract 895 864) _substvar_2499_) (_ bv0 16))) (= (_ bv0 48) (concat (_ bv0 16) ((_ extract 863 832) _substvar_2499_)))) (and (= (_ bv0 48) (concat ((_ extract 959 928) _substvar_2499_) (_ bv0 16))) (= (_ bv0 48) (concat (_ bv0 16) ((_ extract 927 896) _substvar_2499_)))) (and (= (_ bv0 48) (concat ((_ extract 1023 992) _substvar_2499_) (_ bv0 16))) (= ?v_31 (concat (_ bv0 16) ((_ extract 991 960) _substvar_2499_))))) (and true true true (= ?v_7 (_ bv0 48)) (= ?v_8 (_ bv0 48)) (= ?v_10 (_ bv0 48)) true (= ?v_15 (_ bv0 48)) true (and (= ?v_18 (_ bv0 48)) _substvar_3266_) (= ?v_20 (_ bv0 48)) (and _substvar_11864_ (= ?v_23 (_ bv0 48))) true true true (= ?v_31 (concat (_ bv0 16) ((_ extract 991 960) _substvar_2218_)))) (and true true true true true true (and (= ?v_12 (concat ((_ extract 447 416) _substvar_2219_) (_ bv0 16))) (= ?v_13 (concat (_ bv0 16) ((_ extract 415 384) _substvar_2219_)))) true true (= ?v_18 (_ bv0 48)) true (and (= ?v_22 (_ bv0 48)) true) true true true true)))))
(check-sat)
(exit)
